1
426
1 0 0 30 30
1 30 0 30 30
1 60 0 30 30
1 90 0 30 30
1 120 0 30 30
1 150 0 30 30
1 180 0 30 30
1 210 0 30 30
1 240 0 30 30
1 270 0 30 30
1 300 0 30 30
1 330 0 30 30
1 360 0 30 30
1 390 0 30 30
1 390 30 30 30
1 390 60 30 30
1 390 90 30 30
1 390 120 30 30
1 390 150 30 30
1 0 30 30 30
1 0 60 30 30
1 0 90 30 30
1 0 120 30 30
1 0 150 30 30
1 0 180 30 30
1 30 180 30 30
1 60 180 30 30
1 90 180 30 30
1 120 180 30 30
1 150 180 30 30
1 180 180 30 30
1 210 180 30 30
1 210 210 30 30
1 180 210 30 30
1 300 180 30 30
1 300 210 30 30
1 330 210 30 30
1 330 180 30 30
1 360 180 30 30
1 390 180 30 30
1 180 330 30 30
1 210 330 30 30
1 210 360 30 30
1 180 360 30 30
1 300 330 30 30
1 300 360 30 30
1 330 360 30 30
1 330 330 30 30
1 360 360 30 30
1 390 360 30 30
1 420 360 30 30
1 450 360 30 30
1 450 390 30 30
1 450 420 30 30
1 450 450 30 30
1 450 480 30 30
1 450 510 30 30
1 420 510 30 30
1 390 510 30 30
1 360 510 30 30
1 330 510 30 30
1 300 510 30 30
1 270 510 30 30
1 240 510 30 30
1 210 510 30 30
1 180 510 30 30
1 90 540 30 30
1 60 540 30 30
1 90 510 30 30
1 60 510 30 30
1 60 480 30 30
1 60 450 30 30
1 60 420 30 30
1 60 390 30 30
1 60 360 30 30
1 90 360 30 30
1 120 360 30 30
1 150 360 30 30
1 60 570 30 30
1 60 600 30 30
1 60 630 30 30
1 60 660 30 30
1 60 690 30 30
1 60 720 30 30
1 90 720 30 30
1 120 720 30 30
1 150 720 30 30
1 180 720 30 30
1 270 600 30 30
1 270 570 30 30
1 270 540 30 30
1 180 540 30 30
1 210 540 30 30
1 240 540 30 30
1 210 720 30 30
1 240 720 30 30
1 270 720 30 30
1 270 690 30 30
1 270 660 30 30
1 270 630 30 30
2 480 750 30 30
2 510 750 30 30
2 510 720 30 30
2 540 720 30 30
2 540 690 30 30
2 570 690 30 30
2 570 660 30 30
2 570 630 30 30
2 600 630 30 30
2 600 600 30 30
2 600 570 30 30
2 540 660 30 30
2 510 780 30 30
2 480 780 30 30
2 540 780 30 30
2 570 780 30 30
2 570 750 30 30
2 600 750 30 30
2 600 720 30 30
2 630 720 30 30
2 630 690 30 30
2 570 720 30 30
2 540 750 30 30
2 600 690 30 30
2 600 660 30 30
2 630 630 30 30
2 630 600 30 30
2 630 660 30 30
2 600 780 30 30
2 630 750 30 30
2 630 780 30 30
2 660 780 30 30
2 660 750 30 30
2 660 720 30 30
2 660 690 30 30
2 660 660 30 30
2 660 630 30 30
2 660 600 30 30
2 660 570 30 30
2 690 570 30 30
2 690 540 30 30
2 690 510 30 30
2 690 480 30 30
2 660 540 30 30
2 630 570 30 30
2 630 540 30 30
2 630 510 30 30
2 660 510 30 30
2 660 480 30 30
2 690 720 30 30
2 690 690 30 30
2 690 660 30 30
2 690 630 30 30
2 690 600 30 30
2 690 750 30 30
2 690 780 30 30
2 720 720 30 30
2 720 690 30 30
2 720 660 30 30
2 720 750 30 30
2 720 780 30 30
2 750 660 30 30
2 750 630 30 30
2 750 600 30 30
2 750 570 30 30
2 750 540 30 30
2 750 510 30 30
2 750 480 30 30
2 750 690 30 30
2 750 720 30 30
2 750 750 30 30
2 720 630 30 30
2 720 600 30 30
2 720 570 30 30
2 720 540 30 30
2 720 510 30 30
2 750 780 30 30
2 750 450 30 30
2 750 420 30 30
2 780 630 30 30
2 780 660 30 30
2 780 690 30 30
2 780 720 30 30
2 780 750 30 30
2 780 780 30 30
2 810 690 30 30
2 810 660 30 30
2 810 720 30 30
2 810 750 30 30
2 810 780 30 30
2 840 720 30 30
2 840 690 30 30
2 840 660 30 30
2 870 690 30 30
2 870 660 30 30
2 870 630 30 30
2 870 600 30 30
2 900 600 30 30
2 870 570 30 30
2 900 540 30 30
2 900 510 30 30
2 900 480 30 30
2 900 450 30 30
2 870 510 30 30
2 870 540 30 30
2 840 540 30 30
2 840 570 30 30
2 840 600 30 30
2 810 600 30 30
2 810 630 30 30
2 870 480 30 30
2 840 630 30 30
2 900 570 30 30
2 930 540 30 30
2 930 510 30 30
2 930 480 30 30
2 960 480 30 30
2 840 510 30 30
2 870 450 30 30
2 840 450 30 30
2 840 480 30 30
2 810 540 30 30
2 810 570 30 30
2 780 600 30 30
2 780 570 30 30
2 810 510 30 30
2 810 480 30 30
2 840 420 30 30
2 840 390 30 30
2 810 420 30 30
2 810 450 30 30
2 780 480 30 30
2 780 510 30 30
2 780 540 30 30
2 780 450 30 30
2 810 390 30 30
2 810 360 30 30
2 780 420 30 30
2 720 480 30 30
2 720 450 30 30
2 720 420 30 30
2 750 390 30 30
2 750 360 30 30
2 720 390 30 30
2 690 450 30 30
2 780 390 30 30
2 840 330 30 30
2 840 360 30 30
2 870 420 30 30
2 900 390 30 30
2 900 360 30 30
2 930 360 30 30
2 930 390 30 30
2 930 420 30 30
2 930 450 30 30
2 960 450 30 30
2 960 420 30 30
2 990 420 30 30
2 990 390 30 30
2 990 360 30 30
2 990 450 30 30
2 960 390 30 30
2 960 360 30 30
2 960 330 30 30
2 930 330 30 30
2 870 390 30 30
2 870 360 30 30
2 900 330 30 30
2 900 300 30 30
2 900 270 30 30
2 900 420 30 30
2 840 300 30 30
2 840 270 30 30
2 810 300 30 30
2 810 330 30 30
2 780 330 30 30
2 780 360 30 30
2 870 270 30 30
2 870 240 30 30
2 870 300 30 30
2 870 330 30 30
2 900 240 30 30
2 930 240 30 30
2 930 210 30 30
2 960 210 30 30
2 960 180 30 30
2 990 180 30 30
2 1020 180 30 30
2 1050 180 30 30
2 1080 180 30 30
2 1110 180 30 30
2 1140 180 30 30
2 1170 180 30 30
2 1200 180 30 30
2 1200 150 30 30
2 1230 150 30 30
2 1260 180 30 30
2 1230 180 30 30
2 1170 150 30 30
2 1140 150 30 30
2 1020 210 30 30
2 990 210 30 30
2 930 270 30 30
2 930 300 30 30
2 960 270 30 30
2 990 270 30 30
2 1020 240 30 30
2 1050 240 30 30
2 1080 240 30 30
2 1110 210 30 30
2 1140 210 30 30
2 1170 210 30 30
2 1200 210 30 30
2 1230 210 30 30
2 990 240 30 30
2 960 240 30 30
2 1050 210 30 30
2 1110 240 30 30
2 1080 270 30 30
2 1050 270 30 30
2 1050 300 30 30
2 1020 300 30 30
2 1020 330 30 30
2 990 330 30 30
2 990 300 30 30
2 1020 270 30 30
2 960 300 30 30
2 1080 210 30 30
2 1170 240 30 30
2 1140 240 30 30
2 1140 270 30 30
2 1110 270 30 30
2 1110 300 30 30
2 1140 300 30 30
2 1170 270 30 30
2 1200 270 30 30
2 1200 240 30 30
2 1230 240 30 30
2 1260 240 30 30
2 1260 210 30 30
2 1260 150 30 30
2 1260 120 30 30
2 1230 270 30 30
2 1170 300 30 30
2 1140 330 30 30
2 1110 330 30 30
2 1080 330 30 30
2 1050 330 30 30
2 1050 360 30 30
2 1020 360 30 30
2 1080 300 30 30
2 1050 390 30 30
2 1020 390 30 30
2 1020 420 30 30
2 1020 450 30 30
2 1050 450 30 30
2 1050 420 30 30
2 1080 420 30 30
2 1110 420 30 30
2 1110 390 30 30
2 1140 390 30 30
2 1170 390 30 30
2 1200 360 30 30
2 1230 360 30 30
2 1260 360 30 30
2 1260 390 30 30
2 1230 390 30 30
2 1200 390 30 30
2 1170 420 30 30
2 1140 420 30 30
2 1080 390 30 30
2 1080 360 30 30
2 1110 360 30 30
2 1140 360 30 30
2 1170 360 30 30
2 1200 330 30 30
2 1230 330 30 30
2 1230 300 30 30
2 1200 300 30 30
2 1170 330 30 30
2 1260 300 30 30
2 1260 270 30 30
2 1260 330 30 30
2 1230 420 30 30
2 1200 420 30 30
1 510 60 30 30
1 540 60 30 30
1 540 90 30 30
1 510 90 30 30
1 510 180 30 30
1 540 180 30 30
1 540 210 30 30
1 510 210 30 30
1 540 240 30 30
1 540 270 30 30
1 540 300 30 30
1 570 300 30 30
1 600 300 30 30
1 630 300 30 30
1 660 300 30 30
1 690 300 30 30
1 720 300 30 30
1 540 30 30 30
1 570 30 30 30
1 600 30 30 30
1 630 30 30 30
1 660 30 30 30
1 690 30 30 30
1 720 30 30 30
1 750 30 30 30
1 780 30 30 30
1 840 30 30 30
1 810 30 30 30
1 840 60 30 30
1 840 90 30 30
1 840 120 30 30
1 840 150 30 30
1 840 180 30 30
1 840 210 30 30
1 840 240 30 30
1 810 240 30 30
null
1 780 270 30 30
1 780 300 30 30
1 750 300 30 30
1 810 270 30 30
